500
    1    74    74
    2    47    47
    3    71    71
    4    83    83
    5    61    61
    6    25    25
    7    58    58
    8     9     9
    9    35    35
   10    14    14
   11    92    92
   12    98    98
   13    60    60
   14    34    34
   15    70    70
   16     4     4
   17    84    84
   18    95    95
   19    89    89
   20    43    43
   21     6     6
   22   100   100
   23    66    66
   24    32    32
   25    19    19
   26    12    12
   27    39    39
   28    35    35
   29    83    83
   30    36    36
   31    27    27
   32     9     9
   33    96    96
   34    35    35
   35    11    11
   36    99    99
   37    28    28
   38    27    27
   39    33    33
   40    66    66
   41    76    76
   42    54    54
   43    54    54
   44    80    80
   45    79    79
   46    77    77
   47    89    89
   48    29    29
   49     7     7
   50    70    70
   51    27    27
   52     3     3
   53    33    33
   54    57    57
   55    26    26
   56    20    20
   57    24    24
   58    23    23
   59    62    62
   60    77    77
   61    96    96
   62    90    90
   63    70    70
   64    25    25
   65    82    82
   66    89    89
   67    16    16
   68    56    56
   69    95    95
   70    80    80
   71    60    60
   72    54    54
   73    23    23
   74    46    46
   75    35    35
   76    44    44
   77    23    23
   78    51    51
   79    17    17
   80    76    76
   81    58    58
   82    17    17
   83    88    88
   84    18    18
   85    89    89
   86     2     2
   87    20    20
   88    64    64
   89    98    98
   90    39    39
   91    45    45
   92    96    96
   93    76    76
   94     9     9
   95    76    76
   96    17    17
   97    38    38
   98     9     9
   99    63    63
  100    30    30
  101    25    25
  102    44    44
  103    51    51
  104    83    83
  105    12    12
  106    64    64
  107    35    35
  108    18    18
  109    99    99
  110    69    69
  111    22    22
  112    95    95
  113    76    76
  114    87    87
  115    89    89
  116    61    61
  117    67    67
  118    65    65
  119    73    73
  120    12    12
  121    27    27
  122    97    97
  123    33    33
  124    95    95
  125    62    62
  126    94    94
  127    61    61
  128    42    42
  129    94    94
  130    79    79
  131    55    55
  132    70    70
  133    59    59
  134    90    90
  135    41    41
  136    66    66
  137    19    19
  138    61    61
  139    40    40
  140    26    26
  141    20    20
  142    22    22
  143    72    72
  144    80    80
  145     5     5
  146     2     2
  147    22    22
  148    90    90
  149    78    78
  150    27    27
  151    71    71
  152     3     3
  153    37    37
  154    19    19
  155    30    30
  156    94    94
  157    39    39
  158    17    17
  159     1     1
  160    44    44
  161    72    72
  162    64    64
  163    80    80
  164    99    99
  165    61    61
  166    78    78
  167    64    64
  168    47    47
  169    64    64
  170    66    66
  171     8     8
  172    29    29
  173     6     6
  174    39    39
  175    35    35
  176    48    48
  177    69    69
  178    65    65
  179    90    90
  180    59    59
  181    79    79
  182    87    87
  183    91    91
  184     2     2
  185    71    71
  186    86    86
  187    94    94
  188    41    41
  189    59    59
  190    45    45
  191    68    68
  192    79    79
  193    44    44
  194    66    66
  195    75    75
  196    37    37
  197    79    79
  198    89    89
  199    67    67
  200     5     5
  201    16    16
  202    41    41
  203    71    71
  204    58    58
  205    77    77
  206    43    43
  207    63    63
  208    34    34
  209    84    84
  210    60    60
  211    69    69
  212    20    20
  213    46    46
  214    39    39
  215    53    53
  216    97    97
  217     5     5
  218    35    35
  219    44    44
  220    33    33
  221    89    89
  222    30    30
  223     6     6
  224    15    15
  225    80    80
  226    50    50
  227    48    48
  228     4     4
  229    96    96
  230    79    79
  231    69    69
  232    46    46
  233    78    78
  234    28    28
  235    36    36
  236    26    26
  237    80    80
  238    67    67
  239    95    95
  240    72    72
  241    94    94
  242    82    82
  243    75    75
  244    95    95
  245    82    82
  246    47    47
  247    93    93
  248     4     4
  249     4     4
  250   100   100
  251    89    89
  252    53    53
  253    98    98
  254    57    57
  255    78    78
  256    87    87
  257    57    57
  258    88    88
  259    34    34
  260    69    69
  261   100   100
  262    99    99
  263    72    72
  264    92    92
  265    37    37
  266    89    89
  267    19    19
  268    51    51
  269    55    55
  270    10    10
  271    97    97
  272    12    12
  273    88    88
  274    21    21
  275    53    53
  276    22    22
  277    44    44
  278    36    36
  279    11    11
  280    94    94
  281    30    30
  282    79    79
  283    31    31
  284    25    25
  285    34    34
  286    58    58
  287    86    86
  288    92    92
  289    64    64
  290     9     9
  291    89    89
  292    15    15
  293    61    61
  294    98    98
  295    54    54
  296    32    32
  297    99    99
  298    97    97
  299    13    13
  300    91    91
  301    88    88
  302    93    93
  303    15    15
  304     7     7
  305    80    80
  306   100   100
  307    91    91
  308    80    80
  309    24    24
  310    21    21
  311    83    83
  312    81    81
  313    85    85
  314    82    82
  315    46    46
  316    30    30
  317    20    20
  318    28    28
  319    36    36
  320    78    78
  321    44    44
  322     7     7
  323    61    61
  324    74    74
  325    97    97
  326    55    55
  327    68    68
  328    58    58
  329    84    84
  330    73    73
  331    85    85
  332    22    22
  333    89    89
  334    68    68
  335    62    62
  336    57    57
  337    96    96
  338    71    71
  339    76    76
  340    46    46
  341    61    61
  342    63    63
  343    32    32
  344    11    11
  345    83    83
  346    27    27
  347    64    64
  348    95    95
  349    81    81
  350    16    16
  351    85    85
  352    17    17
  353    85    85
  354    44    44
  355    72    72
  356    39    39
  357     9     9
  358    31    31
  359    34    34
  360    17    17
  361    86    86
  362    60    60
  363    75    75
  364     6     6
  365    83    83
  366    66    66
  367    79    79
  368    42    42
  369    51    51
  370    50    50
  371   100   100
  372    58    58
  373    17    17
  374    50    50
  375    16    16
  376    25    25
  377     6     6
  378    48    48
  379    24    24
  380    44    44
  381    85    85
  382     9     9
  383    89    89
  384    52    52
  385    47    47
  386    22    22
  387     3     3
  388    37    37
  389    24    24
  390    85    85
  391    20    20
  392     2     2
  393    22    22
  394    49    49
  395     8     8
  396    57    57
  397     9     9
  398    11    11
  399    76    76
  400    33    33
  401    89    89
  402    13    13
  403     3     3
  404    30    30
  405    69    69
  406    21    21
  407    37    37
  408    35    35
  409     1     1
  410    95    95
  411    83    83
  412     9     9
  413    19    19
  414     4     4
  415    68    68
  416    44    44
  417    22    22
  418    59    59
  419    48    48
  420    40    40
  421    39    39
  422    10    10
  423    18    18
  424    50    50
  425    41    41
  426    10    10
  427    11    11
  428     6     6
  429    76    76
  430    56    56
  431    86    86
  432    51    51
  433    23    23
  434    44    44
  435    50    50
  436    90    90
  437    76    76
  438    56    56
  439    17    17
  440    12    12
  441    40    40
  442    30    30
  443    15    15
  444    23    23
  445    80    80
  446    52    52
  447    38    38
  448    57    57
  449    46    46
  450     5     5
  451    46    46
  452    88    88
  453    14    14
  454    81    81
  455    76    76
  456    78    78
  457     2     2
  458    89    89
  459    57    57
  460    61    61
  461    48    48
  462     1     1
  463    13    13
  464    24    24
  465    75    75
  466    79    79
  467    69    69
  468   100   100
  469     4     4
  470    56    56
  471    70    70
  472    69    69
  473     4     4
  474    31    31
  475    20    20
  476    57    57
  477    55    55
  478    10    10
  479    99    99
  480    99    99
  481    92    92
  482    42    42
  483    38    38
  484    34    34
  485    80    80
  486    71    71
  487    62    62
  488    45    45
  489    33    33
  490    88    88
  491    41    41
  492    43    43
  493    64    64
  494    73    73
  495    40    40
  496    16    16
  497    71    71
  498     6     6
  499    59    59
  500    34    34
13037
